data;

param w := 39;
param n := 29;
param min_h := 39;
param max_h := 66;

set BLOCKS := 1 2 3 4 5 6 7 8 9 10 11 12 13 14 15 16 17 18 19 20 21 22 23 24 25 26 27 28 29 ;

param:	width	height :=
	1	15	39
	2	5	18
	3	5	13
	4	4	16
	5	4	15
	6	5	11
	7	5	10
	8	4	12
	9	3	15
	10	5	8
	11	4	9
	12	3	11
	13	4	8
	14	3	10
	15	5	6
	16	3	9
	17	5	5
	18	4	6
	19	3	8
	20	3	7
	21	4	5
	22	5	4
	23	3	6
	24	4	4
	25	5	3
	26	3	5
	27	3	4
	28	4	3
	29	3	3;